(set-logic QF_S)
(set-option :produce-models true)

(declare-fun s5479 () String)
(declare-fun s2320 () String)
(declare-fun s4147 () String)
(declare-fun s5049 () String)
(declare-fun s1471 () String)
(declare-fun s1061 () String)
(declare-fun s4597 () String)
(declare-fun s578 () String)
(declare-fun s118 () String)
(declare-fun s2267 () String)
(declare-fun s2766 () String)
(declare-fun s5582 () String)
(declare-fun s4144 () String)
(declare-fun s869 () String)
(declare-fun s6219 () String)
(declare-fun s439 () String)
(declare-fun s436 () String)
(declare-fun s3258 () String)
(declare-fun s866 () String)
(declare-fun s2323 () String)
(declare-fun s3225 () String)
(declare-fun s4418 () String)
(declare-fun s6153 () String)
(declare-fun s2763 () String)
(declare-fun s4815 () String)
(declare-fun s7171 () String)
(declare-fun s6282 () String)
(declare-fun s6533 () String)
(declare-fun s2709 () String)
(declare-fun s2972 () String)
(declare-fun s3387 () String)
(declare-fun s4700 () String)
(declare-fun s4094 () String)
(declare-fun s4594 () String)
(declare-fun s5615 () String)
(declare-fun s4646 () String)
(declare-fun s3420 () String)
(declare-fun s915 () String)
(declare-fun s581 () String)
(declare-fun s4474 () String)
(declare-fun s4254 () String)
(declare-fun s4421 () String)
(declare-fun s4201 () String)
(declare-fun s7117 () String)
(declare-fun s5422 () String)
(declare-fun s2213 () String)
(declare-fun s2433 () String)
(declare-fun s4308 () String)
(declare-fun s2663 () String)
(declare-fun s1258 () String)
(declare-fun s3293 () String)
(declare-fun s1300 () String)
(declare-fun s2855 () String)
(declare-fun s4198 () String)
(declare-fun s3444 () String)
(declare-fun s4091 () String)
(declare-fun s6386 () String)
(declare-fun s3014 () String)
(declare-fun s5547 () String)
(declare-fun s7174 () String)
(declare-fun s6156 () String)
(declare-fun s5260 () String)
(declare-fun s4643 () String)
(declare-fun s2216 () String)
(declare-fun s5166 () String)
(declare-fun s2606 () String)
(declare-fun s5328 () String)
(declare-fun s2264 () String)
(declare-fun s2484 () String)
(declare-fun s4890 () String)
(declare-fun s4367 () String)
(declare-fun s4734 () String)
(declare-fun s2540 () String)
(declare-fun s4364 () String)
(declare-fun s639 () String)
(declare-fun s4311 () String)
(declare-fun s4737 () String)
(declare-fun s2487 () String)
(declare-fun s3131 () String)
(declare-fun s2897 () String)
(declare-fun s2821 () String)
(declare-fun s1565 () String)
(declare-fun s1598 () String)
(declare-fun s2543 () String)
(declare-fun s636 () String)
(declare-fun s2609 () String)
(declare-fun s5124 () String)
(declare-fun s2712 () String)
(declare-fun s693 () String)
(declare-fun s5293 () String)
(declare-fun s5514 () String)
(declare-fun s6439 () String)
(declare-fun s523 () String)
(declare-fun s7057 () String)
(declare-fun s1181 () String)
(declare-fun s815 () String)
(declare-fun s7120 () String)
(declare-fun s4477 () String)
(declare-fun s4257 () String)
(declare-fun s3512 () String)
(declare-fun s1394 () String)
(declare-fun s4697 () String)
(declare-fun s2430 () String)
(declare-fun s2660 () String)
(declare-fun s812 () String)
(declare-fun s2377 () String)
(declare-fun s690 () String)
(declare-fun s1139 () String)
(declare-fun s4543 () String)
(declare-fun s749 () String)
(declare-fun s3479 () String)
(declare-fun s4773 () String)
(declare-fun s5455 () String)
(declare-fun s1622 () String)
(declare-fun s746 () String)
(declare-fun s526 () String)
(declare-fun s4540 () String)
(declare-fun s7054 () String)
(declare-fun s1430 () String)
(declare-fun s4932 () String)
(declare-fun s5007 () String)
(declare-fun s918 () String)
(declare-fun s3089 () String)
(declare-fun s6285 () String)
(declare-fun s6216 () String)
(declare-fun s2374 () String)
(declare-fun s997 () String)

(assert (= s869 s866 ))
(assert (not (= s5260 s118 )))
(assert (not (= s118 s4646 )))
(assert (not (= s3444 s118 )))
(assert (not (= s118 s439 )))
(assert (= s1258 s118 ))
(assert (not (= s118 s749 )))
(assert (not (= s118 s4700 )))
(assert (= s439 s436 ))
(assert (= s2433 s2430 ))
(assert (= s4147 s4144 ))
(assert (= s5007 s118 ))
(assert (= s2663 s2660 ))
(assert (not (= s3420 s118 )))
(assert (= s2323 s2320 ))
(assert (not (= s6533 s118 )))
(assert (not (= s118 s4257 )))
(assert (= s118 s2267 ))
(assert (not (= s997 s118 )))
(assert (not (= s118 s2216 )))
(assert (= s4257 s4254 ))
(assert (= s2712 s2709 ))
(assert (not (= s118 s526 )))
(assert (= s4597 s4594 ))
(assert (= s2543 s2540 ))
(assert (= s6285 s6282 ))
(assert (not (= s118 s7174 )))
(assert (not (= s1622 s118 )))
(assert (= s526 s523 ))
(assert (not (= s118 s2712 )))
(assert (not (= s118 s4737 )))
(assert (not (= s118 s815 )))
(assert (= s918 s915 ))
(assert (not (= s3387 s118 )))
(assert (= s4646 s4643 ))
(assert (= s7057 s7054 ))
(assert (not (= s1565 s118 )))
(assert (= s4737 s4734 ))
(assert (not (= s118 s4367 )))
(assert (not (= s118 s2609 )))
(assert (not (= s118 s2323 )))
(assert (= s4700 s4697 ))
(assert (not (= s118 s7120 )))
(assert (not (= s3014 s118 )))
(assert (not (= s118 s4147 )))
(assert (= s4773 s118 ))
(assert (not (= s118 s6219 )))
(assert (not (= s118 s639 )))
(assert (not (= s4932 s118 )))
(assert (= s118 s2487 ))
(assert (not (= s118 s869 )))
(assert (= s118 s4201 ))
(assert (= s118 "(" ))
(assert (= s4367 s4364 ))
(assert (= s118 s581 ))
(assert (= s815 s812 ))
(assert (= s4421 s4418 ))
(assert (= s1139 s118 ))
(assert (= s2609 s2606 ))
(assert (not (= s1471 s118 )))
(assert (not (= s1430 s118 )))
(assert (not (= s1300 s118 )))
(assert (not (= s4815 s118 )))
(assert (not (= s2821 s118 )))
(assert (= s4094 s4091 ))
(assert (not (= s118 s6285 )))
(assert (not (= s3293 s118 )))
(assert (= s118 s4311 ))
(assert (not (= s5293 s118 )))
(assert (not (= s118 s2543 )))
(assert (= s2972 s118 ))
(assert (= s4201 s4198 ))
(assert (not (= s118 s4477 )))
(assert (not (= s2897 s118 )))
(assert (not (= s118 s918 )))
(assert (= s2267 s2264 ))
(assert (= s118 s693 ))
(assert (not (= s118 s2663 )))
(assert (not (= s1061 s118 )))
(assert (not (= s5615 s118 )))
(assert (not (= s5049 s118 )))
(assert (not (= s3512 s118 )))
(assert (not (= s5582 s118 )))
(assert (= s639 s636 ))
(assert (= s118 s4421 ))
(assert (= s4543 s4540 ))
(assert (= s4890 s118 ))
(assert (= s2855 s118 ))
(assert (not (= s6386 s118 )))
(assert (not (= s1598 s118 )))
(assert (not (= s5166 s118 )))
(assert (not (= s5422 s118 )))
(assert (not (= s3131 s118 )))
(assert (= s118 s2377 ))
(assert (= s2377 s2374 ))
(assert (not (= s3225 s118 )))
(assert (= s6219 s6216 ))
(assert (not (= s3479 s118 )))
(assert (= s2766 s2763 ))
(assert (= s4311 s4308 ))
(assert (not (= s6439 s118 )))
(assert (= s2216 s2213 ))
(assert (not (= s5479 s118 )))
(assert (= s6156 s6153 ))
(assert (not (= s118 s7057 )))
(assert (= s2487 s2484 ))
(assert (not (= s118 s4597 )))
(assert (not (= s118 s2766 )))
(assert (not (= s5547 s118 )))
(assert (not (= s5455 s118 )))
(assert (not (= s1394 s118 )))
(assert (= s5124 s118 ))
(assert (not (= s118 s6156 )))
(assert (= s118 s4094 ))
(assert (= s7174 s7171 ))
(assert (= s693 s690 ))
(assert (not (= s1181 s118 )))
(assert (not (= s5328 s118 )))
(assert (= s749 s746 ))
(assert (= s3089 s118 ))
(assert (not (= s3258 s118 )))
(assert (not (= s118 s2433 )))
(assert (not (= s118 s4543 )))
(assert (not (= s5514 s118 )))
(assert (= s4477 s4474 ))
(assert (= s7120 s7117 ))
(assert (= s581 s578 ))


(check-sat)
(get-model)
